Maximize
 0
Subject To
 epc_0!1: -99.45386029585839 y_1!1_2!1 +95.34350639533625 y_1!2_2!1 -96.87472533430392 y_1!3_2!1 -50.61537293484007 y_1!4_2!1 -6.283040596135692 y_1!5_2!1 -48.849178860088216 y_1!6_2!1 -24.71188178825092 y_1!1_2!2 -65.5288282258227 y_1!2_2!2 +87.25609622239386 y_1!3_2!2 +80.83106016425842 y_1!4_2!2 -94.13016213497134 y_1!5_2!2 +71.97590629207377 y_1!6_2!2 -24.204514839315493 y_1!1_2!3 +53.629572474362675 y_1!2_2!3 +4.650806990600472 y_1!3_2!3 +80.45079081020242 y_1!4_2!3 -69.44693568838265 y_1!5_2!3 +18.796119774563877 y_1!6_2!3 -42.684556359859016 y_1!1_2!4 -3.446517097586792 y_1!2_2!4 -57.252722880123976 y_1!3_2!4 +8.25535199333811 y_1!4_2!4 -77.4162534065919 y_1!5_2!4 +8.876270831403431 y_1!6_2!4 +55.89097970229244 y_1!1_2!5 -38.83551605373938 y_1!2_2!5 +87.36284113988751 y_1!3_2!5 +39.052832509122425 y_1!4_2!5 -62.25404989164869 y_1!5_2!5 -66.36053964587458 y_1!6_2!5 +55.69981976968376 y_1!1_2!6 -41.57594147209274 y_1!2_2!6 +92.7193461572121 y_1!3_2!6 +6.930780950201083 y_1!4_2!6 +97.31708620174388 y_1!5_2!6 -21.455756010808287 y_1!6_2!6 + lambda_0!1 - mu_0 = 0
 epc_0!2: -48.78821658545051 y_1!1_2!1 +25.63561968217462 y_1!2_2!1 +67.5082238961815 y_1!3_2!1 +76.70359991033905 y_1!4_2!1 +53.075864767774874 y_1!5_2!1 +25.21770787368915 y_1!6_2!1 +84.57287880390845 y_1!1_2!2 +17.023845500572364 y_1!2_2!2 -93.54432193392495 y_1!3_2!2 +96.09568922151368 y_1!4_2!2 +82.27786010336041 y_1!5_2!2 -16.560093474723402 y_1!6_2!2 +79.511396348977 y_1!1_2!3 -88.59829531894327 y_1!2_2!3 +28.17935781842911 y_1!3_2!3 +85.00760437474605 y_1!4_2!3 +45.34725802279149 y_1!5_2!3 -3.1347956628781333 y_1!6_2!3 -74.47199207594844 y_1!1_2!4 +33.27259769901724 y_1!2_2!4 -38.68680206661441 y_1!3_2!4 -23.427269309274763 y_1!4_2!4 +79.05123647013318 y_1!5_2!4 -67.57897897836709 y_1!6_2!4 -48.84924038275016 y_1!1_2!5 +90.51721687215331 y_1!2_2!5 +79.59547927235727 y_1!3_2!5 -36.514703536165996 y_1!4_2!5 +34.514430755650096 y_1!5_2!5 -59.03185609795128 y_1!6_2!5 +77.15950748404958 y_1!1_2!6 -55.36361888289048 y_1!2_2!6 +98.39978004005721 y_1!3_2!6 +74.69369623134557 y_1!4_2!6 -38.14984730679707 y_1!5_2!6 -0.40629857383622436 y_1!6_2!6 + lambda_0!2 - mu_0 = 0
 epc_0!3: -82.99920758515938 y_1!1_2!1 +99.45888126433664 y_1!2_2!1 -28.229485958097996 y_1!3_2!1 -3.1602325193859997 y_1!4_2!1 +9.467363174433615 y_1!5_2!1 -55.70255765160057 y_1!6_2!1 -27.345302219422393 y_1!1_2!2 -71.0880071551565 y_1!2_2!2 +75.68161608999358 y_1!3_2!2 -51.65267132524725 y_1!4_2!2 -7.180777767095208 y_1!5_2!2 +53.595010869343014 y_1!6_2!2 -51.930498787327515 y_1!1_2!3 +71.49418965980999 y_1!2_2!3 -12.8784247649306 y_1!3_2!3 -31.930944620639522 y_1!4_2!3 -50.374481564408356 y_1!5_2!3 +29.545274632100984 y_1!6_2!3 -96.10073738891556 y_1!1_2!4 -40.022627614715134 y_1!2_2!4 +56.37931942484266 y_1!3_2!4 +22.739160092952247 y_1!4_2!4 +4.5714442639742 y_1!5_2!4 +87.69985742295259 y_1!6_2!4 +64.95269036212352 y_1!1_2!5 +86.72858974395146 y_1!2_2!5 +76.22151617708909 y_1!3_2!5 -72.75953340767316 y_1!4_2!5 -46.511934001166885 y_1!5_2!5 -33.18227525627795 y_1!6_2!5 -49.55809904338653 y_1!1_2!6 -88.49039772794248 y_1!2_2!6 +74.22990508044191 y_1!3_2!6 +66.23506961903846 y_1!4_2!6 -8.277686728380559 y_1!5_2!6 +37.78283020456479 y_1!6_2!6 + lambda_0!3 - mu_0 = 0
 epc_0!4: +18.887725824480057 y_1!1_2!1 +35.88744995275442 y_1!2_2!1 +77.42040248094693 y_1!3_2!1 -71.8869261675755 y_1!4_2!1 +68.62461808203685 y_1!5_2!1 +44.75844794206864 y_1!6_2!1 +62.26222163065856 y_1!1_2!2 +64.41768734235944 y_1!2_2!2 +51.76267394863288 y_1!3_2!2 -27.467460878535448 y_1!4_2!2 +31.665938579296125 y_1!5_2!2 -78.37810887170214 y_1!6_2!2 +9.060604610861674 y_1!1_2!3 +60.03111682578856 y_1!2_2!3 +48.193318884192934 y_1!3_2!3 +64.4123778887838 y_1!4_2!3 -16.44171449834775 y_1!5_2!3 +0.40485188740262856 y_1!6_2!3 -70.84143944511169 y_1!1_2!4 +81.4917715942112 y_1!2_2!4 -39.736460547169685 y_1!3_2!4 +97.76882432671519 y_1!4_2!4 -51.13002165841145 y_1!5_2!4 -55.633638015852526 y_1!6_2!4 +95.2065734236161 y_1!1_2!5 -6.47432170687641 y_1!2_2!5 +15.005031262455475 y_1!3_2!5 +24.837423548576538 y_1!4_2!5 -84.10662842387524 y_1!5_2!5 +54.907968358189635 y_1!6_2!5 +26.149884754607314 y_1!1_2!6 +90.72744989006799 y_1!2_2!6 +25.18924092563151 y_1!3_2!6 -29.72899392115778 y_1!4_2!6 -32.46525571773992 y_1!5_2!6 +49.37243543337806 y_1!6_2!6 + lambda_0!4 - mu_0 = 0
 epc_0!5: -50.86046754135276 y_1!1_2!1 +62.499172343457076 y_1!2_2!1 -43.2861504095829 y_1!3_2!1 -67.80315839843136 y_1!4_2!1 -89.31152266071021 y_1!5_2!1 +11.58432234927595 y_1!6_2!1 +45.49670899420926 y_1!1_2!2 -25.735178578534672 y_1!2_2!2 +91.25609526409747 y_1!3_2!2 +36.397857506919735 y_1!4_2!2 -4.110628292761675 y_1!5_2!2 +44.04019045520178 y_1!6_2!2 -10.643161033563047 y_1!1_2!3 +92.17640324107009 y_1!2_2!3 +58.26791452096808 y_1!3_2!3 +91.46084879636012 y_1!4_2!3 -53.78992462211294 y_1!5_2!3 +73.88800722558932 y_1!6_2!3 -51.546413287871594 y_1!1_2!4 +10.053624497896777 y_1!2_2!4 +29.260789428062083 y_1!3_2!4 +98.36426492988912 y_1!4_2!4 -44.150983167243155 y_1!5_2!4 +80.49830035663146 y_1!6_2!4 +15.126549272632587 y_1!1_2!5 -62.38343409299163 y_1!2_2!5 +57.64126158002111 y_1!3_2!5 -71.73363509156856 y_1!4_2!5 +97.75200098227776 y_1!5_2!5 -58.3823417381176 y_1!6_2!5 +89.85302922607809 y_1!1_2!6 -41.38428624269128 y_1!2_2!6 -2.4478832331233207 y_1!3_2!6 +38.82977120659527 y_1!4_2!6 +76.02329460422581 y_1!5_2!6 +82.22252810670568 y_1!6_2!6 + lambda_0!5 - mu_0 = 0
 epc_0!6: +11.60191115470937 y_1!1_2!1 +65.49470744525777 y_1!2_2!1 -80.89175535939937 y_1!3_2!1 +78.82440750380493 y_1!4_2!1 +25.80052746357049 y_1!5_2!1 -32.06215275288609 y_1!6_2!1 -95.64695053054852 y_1!1_2!2 -84.63519458825843 y_1!2_2!2 -83.57081344207904 y_1!3_2!2 -26.904883359808963 y_1!4_2!2 -66.71364696583579 y_1!5_2!2 -86.44218415167309 y_1!6_2!2 -98.94571367469347 y_1!1_2!3 -20.524008174088593 y_1!2_2!3 +35.31196271853449 y_1!3_2!3 +82.94506974401702 y_1!4_2!3 -99.9038879916005 y_1!5_2!3 -22.28458128151604 y_1!6_2!3 -46.767719928698284 y_1!1_2!4 +58.542627362769 y_1!2_2!4 -77.11291165062961 y_1!3_2!4 -72.398062132055 y_1!4_2!4 +19.49816631570738 y_1!5_2!4 -89.65411882876013 y_1!6_2!4 +82.74611568266846 y_1!1_2!5 -98.18284470137301 y_1!2_2!5 -85.00943203382461 y_1!3_2!5 +79.31147007191703 y_1!4_2!5 +60.60029554124412 y_1!5_2!5 -71.58204334350593 y_1!6_2!5 -45.134864526013295 y_1!1_2!6 +96.84755657254837 y_1!2_2!6 +86.68523883747946 y_1!3_2!6 +14.09260352363708 y_1!4_2!6 -4.008934411353721 y_1!5_2!6 -5.15640430811915 y_1!6_2!6 + lambda_0!6 - mu_0 = 0
 dc_0: x_0!1 + x_0!2 + x_0!3 + x_0!4 + x_0!5 + x_0!6 = 1
 bc_0!1: lambda_0!1 +299.3627692559371 x_0!1 <= 299.3627692559371
 bc_0!2: lambda_0!2 +299.3627692559371 x_0!2 <= 299.3627692559371
 bc_0!3: lambda_0!3 +299.3627692559371 x_0!3 <= 299.3627692559371
 bc_0!4: lambda_0!4 +299.3627692559371 x_0!4 <= 299.3627692559371
 bc_0!5: lambda_0!5 +299.3627692559371 x_0!5 <= 299.3627692559371
 bc_0!6: lambda_0!6 +299.3627692559371 x_0!6 <= 299.3627692559371
 sum_0!1: y_1!1_2!1 - x_1!1 - x_2!1 >= -1
 idk_0!1!1: y_1!1_2!1 - x_1!1 <= 0
 idk_0!1!2: y_1!1_2!1 - x_2!1 <= 0
 sum_0!2: y_1!2_2!1 - x_1!2 - x_2!1 >= -1
 idk_0!2!1: y_1!2_2!1 - x_1!2 <= 0
 idk_0!2!2: y_1!2_2!1 - x_2!1 <= 0
 sum_0!3: y_1!3_2!1 - x_1!3 - x_2!1 >= -1
 idk_0!3!1: y_1!3_2!1 - x_1!3 <= 0
 idk_0!3!2: y_1!3_2!1 - x_2!1 <= 0
 sum_0!4: y_1!4_2!1 - x_1!4 - x_2!1 >= -1
 idk_0!4!1: y_1!4_2!1 - x_1!4 <= 0
 idk_0!4!2: y_1!4_2!1 - x_2!1 <= 0
 sum_0!5: y_1!5_2!1 - x_1!5 - x_2!1 >= -1
 idk_0!5!1: y_1!5_2!1 - x_1!5 <= 0
 idk_0!5!2: y_1!5_2!1 - x_2!1 <= 0
 sum_0!6: y_1!6_2!1 - x_1!6 - x_2!1 >= -1
 idk_0!6!1: y_1!6_2!1 - x_1!6 <= 0
 idk_0!6!2: y_1!6_2!1 - x_2!1 <= 0
 sum_0!7: y_1!1_2!2 - x_1!1 - x_2!2 >= -1
 idk_0!7!1: y_1!1_2!2 - x_1!1 <= 0
 idk_0!7!2: y_1!1_2!2 - x_2!2 <= 0
 sum_0!8: y_1!2_2!2 - x_1!2 - x_2!2 >= -1
 idk_0!8!1: y_1!2_2!2 - x_1!2 <= 0
 idk_0!8!2: y_1!2_2!2 - x_2!2 <= 0
 sum_0!9: y_1!3_2!2 - x_1!3 - x_2!2 >= -1
 idk_0!9!1: y_1!3_2!2 - x_1!3 <= 0
 idk_0!9!2: y_1!3_2!2 - x_2!2 <= 0
 sum_0!10: y_1!4_2!2 - x_1!4 - x_2!2 >= -1
 idk_0!10!1: y_1!4_2!2 - x_1!4 <= 0
 idk_0!10!2: y_1!4_2!2 - x_2!2 <= 0
 sum_0!11: y_1!5_2!2 - x_1!5 - x_2!2 >= -1
 idk_0!11!1: y_1!5_2!2 - x_1!5 <= 0
 idk_0!11!2: y_1!5_2!2 - x_2!2 <= 0
 sum_0!12: y_1!6_2!2 - x_1!6 - x_2!2 >= -1
 idk_0!12!1: y_1!6_2!2 - x_1!6 <= 0
 idk_0!12!2: y_1!6_2!2 - x_2!2 <= 0
 sum_0!13: y_1!1_2!3 - x_1!1 - x_2!3 >= -1
 idk_0!13!1: y_1!1_2!3 - x_1!1 <= 0
 idk_0!13!2: y_1!1_2!3 - x_2!3 <= 0
 sum_0!14: y_1!2_2!3 - x_1!2 - x_2!3 >= -1
 idk_0!14!1: y_1!2_2!3 - x_1!2 <= 0
 idk_0!14!2: y_1!2_2!3 - x_2!3 <= 0
 sum_0!15: y_1!3_2!3 - x_1!3 - x_2!3 >= -1
 idk_0!15!1: y_1!3_2!3 - x_1!3 <= 0
 idk_0!15!2: y_1!3_2!3 - x_2!3 <= 0
 sum_0!16: y_1!4_2!3 - x_1!4 - x_2!3 >= -1
 idk_0!16!1: y_1!4_2!3 - x_1!4 <= 0
 idk_0!16!2: y_1!4_2!3 - x_2!3 <= 0
 sum_0!17: y_1!5_2!3 - x_1!5 - x_2!3 >= -1
 idk_0!17!1: y_1!5_2!3 - x_1!5 <= 0
 idk_0!17!2: y_1!5_2!3 - x_2!3 <= 0
 sum_0!18: y_1!6_2!3 - x_1!6 - x_2!3 >= -1
 idk_0!18!1: y_1!6_2!3 - x_1!6 <= 0
 idk_0!18!2: y_1!6_2!3 - x_2!3 <= 0
 sum_0!19: y_1!1_2!4 - x_1!1 - x_2!4 >= -1
 idk_0!19!1: y_1!1_2!4 - x_1!1 <= 0
 idk_0!19!2: y_1!1_2!4 - x_2!4 <= 0
 sum_0!20: y_1!2_2!4 - x_1!2 - x_2!4 >= -1
 idk_0!20!1: y_1!2_2!4 - x_1!2 <= 0
 idk_0!20!2: y_1!2_2!4 - x_2!4 <= 0
 sum_0!21: y_1!3_2!4 - x_1!3 - x_2!4 >= -1
 idk_0!21!1: y_1!3_2!4 - x_1!3 <= 0
 idk_0!21!2: y_1!3_2!4 - x_2!4 <= 0
 sum_0!22: y_1!4_2!4 - x_1!4 - x_2!4 >= -1
 idk_0!22!1: y_1!4_2!4 - x_1!4 <= 0
 idk_0!22!2: y_1!4_2!4 - x_2!4 <= 0
 sum_0!23: y_1!5_2!4 - x_1!5 - x_2!4 >= -1
 idk_0!23!1: y_1!5_2!4 - x_1!5 <= 0
 idk_0!23!2: y_1!5_2!4 - x_2!4 <= 0
 sum_0!24: y_1!6_2!4 - x_1!6 - x_2!4 >= -1
 idk_0!24!1: y_1!6_2!4 - x_1!6 <= 0
 idk_0!24!2: y_1!6_2!4 - x_2!4 <= 0
 sum_0!25: y_1!1_2!5 - x_1!1 - x_2!5 >= -1
 idk_0!25!1: y_1!1_2!5 - x_1!1 <= 0
 idk_0!25!2: y_1!1_2!5 - x_2!5 <= 0
 sum_0!26: y_1!2_2!5 - x_1!2 - x_2!5 >= -1
 idk_0!26!1: y_1!2_2!5 - x_1!2 <= 0
 idk_0!26!2: y_1!2_2!5 - x_2!5 <= 0
 sum_0!27: y_1!3_2!5 - x_1!3 - x_2!5 >= -1
 idk_0!27!1: y_1!3_2!5 - x_1!3 <= 0
 idk_0!27!2: y_1!3_2!5 - x_2!5 <= 0
 sum_0!28: y_1!4_2!5 - x_1!4 - x_2!5 >= -1
 idk_0!28!1: y_1!4_2!5 - x_1!4 <= 0
 idk_0!28!2: y_1!4_2!5 - x_2!5 <= 0
 sum_0!29: y_1!5_2!5 - x_1!5 - x_2!5 >= -1
 idk_0!29!1: y_1!5_2!5 - x_1!5 <= 0
 idk_0!29!2: y_1!5_2!5 - x_2!5 <= 0
 sum_0!30: y_1!6_2!5 - x_1!6 - x_2!5 >= -1
 idk_0!30!1: y_1!6_2!5 - x_1!6 <= 0
 idk_0!30!2: y_1!6_2!5 - x_2!5 <= 0
 sum_0!31: y_1!1_2!6 - x_1!1 - x_2!6 >= -1
 idk_0!31!1: y_1!1_2!6 - x_1!1 <= 0
 idk_0!31!2: y_1!1_2!6 - x_2!6 <= 0
 sum_0!32: y_1!2_2!6 - x_1!2 - x_2!6 >= -1
 idk_0!32!1: y_1!2_2!6 - x_1!2 <= 0
 idk_0!32!2: y_1!2_2!6 - x_2!6 <= 0
 sum_0!33: y_1!3_2!6 - x_1!3 - x_2!6 >= -1
 idk_0!33!1: y_1!3_2!6 - x_1!3 <= 0
 idk_0!33!2: y_1!3_2!6 - x_2!6 <= 0
 sum_0!34: y_1!4_2!6 - x_1!4 - x_2!6 >= -1
 idk_0!34!1: y_1!4_2!6 - x_1!4 <= 0
 idk_0!34!2: y_1!4_2!6 - x_2!6 <= 0
 sum_0!35: y_1!5_2!6 - x_1!5 - x_2!6 >= -1
 idk_0!35!1: y_1!5_2!6 - x_1!5 <= 0
 idk_0!35!2: y_1!5_2!6 - x_2!6 <= 0
 sum_0!36: y_1!6_2!6 - x_1!6 - x_2!6 >= -1
 idk_0!36!1: y_1!6_2!6 - x_1!6 <= 0
 idk_0!36!2: y_1!6_2!6 - x_2!6 <= 0
 epc_1!1: +15.7459231732374 y_0!1_2!1 -19.261997616995245 y_0!2_2!1 +34.8510971880701 y_0!3_2!1 -55.24562516986889 y_0!4_2!1 -2.762097975715321 y_0!5_2!1 +1.9853196073476624 y_0!6_2!1 +55.010645109398666 y_0!1_2!2 +52.44369758060785 y_0!2_2!2 -41.833000743914404 y_0!3_2!2 -46.43365662749315 y_0!4_2!2 -59.18050406180315 y_0!5_2!2 -63.804189370410484 y_0!6_2!2 -92.99518577765807 y_0!1_2!3 +72.6886323833113 y_0!2_2!3 +68.02908749875783 y_0!3_2!3 +63.75243894157984 y_0!4_2!3 +42.10751625425317 y_0!5_2!3 +66.54728167523294 y_0!6_2!3 +52.018392965028426 y_0!1_2!4 +60.28790516249893 y_0!2_2!4 -64.1638229173544 y_0!3_2!4 -79.34037778885074 y_0!4_2!4 +49.61131257623791 y_0!5_2!4 -31.456566062734808 y_0!6_2!4 -32.725099888169964 y_0!1_2!5 +8.804342796709946 y_0!2_2!5 -62.443589454373424 y_0!3_2!5 +37.556950524018504 y_0!4_2!5 +75.3156662147436 y_0!5_2!5 +32.88032604538799 y_0!6_2!5 -2.2365803760532543 y_0!1_2!6 -57.82309395087317 y_0!2_2!6 +79.15989603653685 y_0!3_2!6 -11.21377565560222 y_0!4_2!6 -80.62804090082926 y_0!5_2!6 -69.61105629462547 y_0!6_2!6 + lambda_1!1 - mu_1 = 0
 epc_1!2: -98.93196838584286 y_0!1_2!1 +20.843384610276175 y_0!2_2!1 -14.58548323408111 y_0!3_2!1 -1.5618470009605971 y_0!4_2!1 -4.514585388482132 y_0!5_2!1 +51.992822699407185 y_0!6_2!1 +58.67687241365482 y_0!1_2!2 +98.42252742452129 y_0!2_2!2 +99.98937116251389 y_0!3_2!2 +3.3502688579470288 y_0!4_2!2 +15.523018605133103 y_0!5_2!2 +82.55407563034998 y_0!6_2!2 -24.031653304618033 y_0!1_2!3 +66.95214460544068 y_0!2_2!3 -37.285998647699216 y_0!3_2!3 -98.43229613613383 y_0!4_2!3 +84.93213198472637 y_0!5_2!3 +65.37164004031825 y_0!6_2!3 -67.51794906825772 y_0!1_2!4 +68.34791996009386 y_0!2_2!4 +53.268870905156376 y_0!3_2!4 +26.112390736884294 y_0!4_2!4 -29.85609591451346 y_0!5_2!4 -29.23221797293874 y_0!6_2!4 -39.45006448574884 y_0!1_2!5 -69.46176424173933 y_0!2_2!5 -26.38730720417641 y_0!3_2!5 +90.5198296277583 y_0!4_2!5 -30.45316933101894 y_0!5_2!5 -78.97254455134441 y_0!6_2!5 -98.76700686261934 y_0!1_2!6 +77.1646882226978 y_0!2_2!6 +46.27758864774677 y_0!3_2!6 -87.61827254090342 y_0!4_2!6 -57.57372735051904 y_0!5_2!6 +6.657222642250943 y_0!6_2!6 + lambda_1!2 - mu_1 = 0
 epc_1!3: -90.8254825545537 y_0!1_2!1 +51.314618038261244 y_0!2_2!1 -3.665632915262293 y_0!3_2!1 -5.982961590505425 y_0!4_2!1 +88.63117128288263 y_0!5_2!1 +50.253853809566806 y_0!6_2!1 +28.753093052994927 y_0!1_2!2 -67.47365793916637 y_0!2_2!2 +25.98176578207405 y_0!3_2!2 -51.73335543550055 y_0!4_2!2 +22.661346343368294 y_0!5_2!2 -17.553292523618254 y_0!6_2!2 +47.424049624643374 y_0!1_2!3 -87.99548055491789 y_0!2_2!3 -65.64779397318748 y_0!3_2!3 +85.78977890276136 y_0!4_2!3 -61.92145654972199 y_0!5_2!3 +7.6120002277275916 y_0!6_2!3 +46.52109704718936 y_0!1_2!4 -91.51577465065286 y_0!2_2!4 +1.4151576581348024 y_0!3_2!4 -74.29073293313829 y_0!4_2!4 +1.6622645053263199 y_0!5_2!4 +32.79796944524912 y_0!6_2!4 +2.271442996294141 y_0!1_2!5 +48.05133380579585 y_0!2_2!5 +80.2285755339287 y_0!3_2!5 -76.74922082597296 y_0!4_2!5 -43.30243745492155 y_0!5_2!5 +81.96660527818494 y_0!6_2!5 +15.135179305689746 y_0!1_2!6 -68.2961024069852 y_0!2_2!6 +88.45029854143141 y_0!3_2!6 -46.923449570680106 y_0!4_2!6 -52.75590868192397 y_0!5_2!6 -52.124745887888515 y_0!6_2!6 + lambda_1!3 - mu_1 = 0
 epc_1!4: +70.22123277307887 y_0!1_2!1 -77.62221329576855 y_0!2_2!1 +51.72911208280294 y_0!3_2!1 +19.56408331648909 y_0!4_2!1 -34.57014860960854 y_0!5_2!1 +14.798348482127352 y_0!6_2!1 +50.08772007653758 y_0!1_2!2 +78.71434495655532 y_0!2_2!2 -81.4874788563427 y_0!3_2!2 -85.17734552699994 y_0!4_2!2 +10.6790560147832 y_0!5_2!2 +50.890648649382854 y_0!6_2!2 +33.632644205240695 y_0!1_2!3 +95.42105988975587 y_0!2_2!3 -54.94230075405591 y_0!3_2!3 -85.72150199586703 y_0!4_2!3 -91.34623896648327 y_0!5_2!3 +34.7742359482568 y_0!6_2!3 -52.871986982369926 y_0!1_2!4 -70.67869240207887 y_0!2_2!4 -91.4566982961454 y_0!3_2!4 +82.84574051808607 y_0!4_2!4 +10.476912886165508 y_0!5_2!4 +28.21187109151802 y_0!6_2!4 +32.06356648696365 y_0!1_2!5 -10.052179587365089 y_0!2_2!5 +40.82945591971088 y_0!3_2!5 +69.17094396338899 y_0!4_2!5 +91.40633877450816 y_0!5_2!5 +21.719914051436234 y_0!6_2!5 +4.619491817602125 y_0!1_2!6 +39.72531815266757 y_0!2_2!6 +86.73734935612859 y_0!3_2!6 +55.769313582238254 y_0!4_2!6 +68.22851604563778 y_0!5_2!6 +9.38187819045217 y_0!6_2!6 + lambda_1!4 - mu_1 = 0
 epc_1!5: +80.83571609745263 y_0!1_2!1 -7.148119653162354 y_0!2_2!1 +59.13331408099219 y_0!3_2!1 -91.53570968361791 y_0!4_2!1 -26.44609146409273 y_0!5_2!1 -66.1951032806345 y_0!6_2!1 +25.259766501746952 y_0!1_2!2 +40.101709946728846 y_0!2_2!2 +13.483946952337988 y_0!3_2!2 -12.215207828953794 y_0!4_2!2 +84.5874765613348 y_0!5_2!2 -11.26727409242703 y_0!6_2!2 -16.43291075209339 y_0!1_2!3 -69.05021271346692 y_0!2_2!3 -98.16843857209598 y_0!3_2!3 +2.5756744970018417 y_0!4_2!3 +56.79879100602278 y_0!5_2!3 -20.87076690018523 y_0!6_2!3 -71.8797565576423 y_0!1_2!4 +81.48699269937606 y_0!2_2!4 +14.344693733329578 y_0!3_2!4 -76.4177066025856 y_0!4_2!4 +80.59147243169343 y_0!5_2!4 +29.144242703317047 y_0!6_2!4 -40.596938722967835 y_0!1_2!5 +12.211400235390315 y_0!2_2!5 +52.329438363559404 y_0!3_2!5 -5.797646681226951 y_0!4_2!5 -28.223142758403426 y_0!5_2!5 +29.28630389206606 y_0!6_2!5 -18.663118531012827 y_0!1_2!6 -97.2637840182516 y_0!2_2!6 -53.17572958257728 y_0!3_2!6 -35.52981478745619 y_0!4_2!6 +59.64826462600402 y_0!5_2!6 +13.152268074138647 y_0!6_2!6 + lambda_1!5 - mu_1 = 0
 epc_1!6: +61.60970805760107 y_0!1_2!1 -2.3504230819851415 y_0!2_2!1 +44.385935913851114 y_0!3_2!1 +4.2205843825245495 y_0!4_2!1 +57.31412160603685 y_0!5_2!1 +0.30186887712540056 y_0!6_2!1 -43.837180885296604 y_0!1_2!2 -85.19982593669482 y_0!2_2!2 -87.01794527963575 y_0!3_2!2 -67.32619582024029 y_0!4_2!2 +40.72914209411081 y_0!5_2!2 +6.976452456841713 y_0!6_2!2 +79.21775174474882 y_0!1_2!3 +5.8616184564963305 y_0!2_2!3 -18.261958607169475 y_0!3_2!3 -37.93713350370007 y_0!4_2!3 -87.61671157349318 y_0!5_2!3 +88.53899696480738 y_0!6_2!3 +18.636892521314977 y_0!1_2!4 -82.74213895696288 y_0!2_2!4 +26.589406445517 y_0!3_2!4 +86.62116701256463 y_0!4_2!4 -42.56261874329641 y_0!5_2!4 -91.57796311712869 y_0!6_2!4 +14.063819112600669 y_0!1_2!5 +38.43051183973884 y_0!2_2!5 -52.771978433055146 y_0!3_2!5 -82.83997855333287 y_0!4_2!5 +65.681207993816 y_0!5_2!5 -52.53503006484777 y_0!6_2!5 +42.06948236617481 y_0!1_2!6 -74.95857312559882 y_0!2_2!6 -54.898814159906784 y_0!3_2!6 -72.84726307728079 y_0!4_2!6 +39.40179270595999 y_0!5_2!6 +10.640461872454125 y_0!6_2!6 + lambda_1!6 - mu_1 = 0
 dc_1: x_1!1 + x_1!2 + x_1!3 + x_1!4 + x_1!5 + x_1!6 = 1
 bc_1!1: lambda_1!1 +299.3627692559371 x_1!1 <= 299.3627692559371
 bc_1!2: lambda_1!2 +299.3627692559371 x_1!2 <= 299.3627692559371
 bc_1!3: lambda_1!3 +299.3627692559371 x_1!3 <= 299.3627692559371
 bc_1!4: lambda_1!4 +299.3627692559371 x_1!4 <= 299.3627692559371
 bc_1!5: lambda_1!5 +299.3627692559371 x_1!5 <= 299.3627692559371
 bc_1!6: lambda_1!6 +299.3627692559371 x_1!6 <= 299.3627692559371
 sum_1!1: y_0!1_2!1 - x_0!1 - x_2!1 >= -1
 idk_1!1!0: y_0!1_2!1 - x_0!1 <= 0
 idk_1!1!2: y_0!1_2!1 - x_2!1 <= 0
 sum_1!2: y_0!2_2!1 - x_0!2 - x_2!1 >= -1
 idk_1!2!0: y_0!2_2!1 - x_0!2 <= 0
 idk_1!2!2: y_0!2_2!1 - x_2!1 <= 0
 sum_1!3: y_0!3_2!1 - x_0!3 - x_2!1 >= -1
 idk_1!3!0: y_0!3_2!1 - x_0!3 <= 0
 idk_1!3!2: y_0!3_2!1 - x_2!1 <= 0
 sum_1!4: y_0!4_2!1 - x_0!4 - x_2!1 >= -1
 idk_1!4!0: y_0!4_2!1 - x_0!4 <= 0
 idk_1!4!2: y_0!4_2!1 - x_2!1 <= 0
 sum_1!5: y_0!5_2!1 - x_0!5 - x_2!1 >= -1
 idk_1!5!0: y_0!5_2!1 - x_0!5 <= 0
 idk_1!5!2: y_0!5_2!1 - x_2!1 <= 0
 sum_1!6: y_0!6_2!1 - x_0!6 - x_2!1 >= -1
 idk_1!6!0: y_0!6_2!1 - x_0!6 <= 0
 idk_1!6!2: y_0!6_2!1 - x_2!1 <= 0
 sum_1!7: y_0!1_2!2 - x_0!1 - x_2!2 >= -1
 idk_1!7!0: y_0!1_2!2 - x_0!1 <= 0
 idk_1!7!2: y_0!1_2!2 - x_2!2 <= 0
 sum_1!8: y_0!2_2!2 - x_0!2 - x_2!2 >= -1
 idk_1!8!0: y_0!2_2!2 - x_0!2 <= 0
 idk_1!8!2: y_0!2_2!2 - x_2!2 <= 0
 sum_1!9: y_0!3_2!2 - x_0!3 - x_2!2 >= -1
 idk_1!9!0: y_0!3_2!2 - x_0!3 <= 0
 idk_1!9!2: y_0!3_2!2 - x_2!2 <= 0
 sum_1!10: y_0!4_2!2 - x_0!4 - x_2!2 >= -1
 idk_1!10!0: y_0!4_2!2 - x_0!4 <= 0
 idk_1!10!2: y_0!4_2!2 - x_2!2 <= 0
 sum_1!11: y_0!5_2!2 - x_0!5 - x_2!2 >= -1
 idk_1!11!0: y_0!5_2!2 - x_0!5 <= 0
 idk_1!11!2: y_0!5_2!2 - x_2!2 <= 0
 sum_1!12: y_0!6_2!2 - x_0!6 - x_2!2 >= -1
 idk_1!12!0: y_0!6_2!2 - x_0!6 <= 0
 idk_1!12!2: y_0!6_2!2 - x_2!2 <= 0
 sum_1!13: y_0!1_2!3 - x_0!1 - x_2!3 >= -1
 idk_1!13!0: y_0!1_2!3 - x_0!1 <= 0
 idk_1!13!2: y_0!1_2!3 - x_2!3 <= 0
 sum_1!14: y_0!2_2!3 - x_0!2 - x_2!3 >= -1
 idk_1!14!0: y_0!2_2!3 - x_0!2 <= 0
 idk_1!14!2: y_0!2_2!3 - x_2!3 <= 0
 sum_1!15: y_0!3_2!3 - x_0!3 - x_2!3 >= -1
 idk_1!15!0: y_0!3_2!3 - x_0!3 <= 0
 idk_1!15!2: y_0!3_2!3 - x_2!3 <= 0
 sum_1!16: y_0!4_2!3 - x_0!4 - x_2!3 >= -1
 idk_1!16!0: y_0!4_2!3 - x_0!4 <= 0
 idk_1!16!2: y_0!4_2!3 - x_2!3 <= 0
 sum_1!17: y_0!5_2!3 - x_0!5 - x_2!3 >= -1
 idk_1!17!0: y_0!5_2!3 - x_0!5 <= 0
 idk_1!17!2: y_0!5_2!3 - x_2!3 <= 0
 sum_1!18: y_0!6_2!3 - x_0!6 - x_2!3 >= -1
 idk_1!18!0: y_0!6_2!3 - x_0!6 <= 0
 idk_1!18!2: y_0!6_2!3 - x_2!3 <= 0
 sum_1!19: y_0!1_2!4 - x_0!1 - x_2!4 >= -1
 idk_1!19!0: y_0!1_2!4 - x_0!1 <= 0
 idk_1!19!2: y_0!1_2!4 - x_2!4 <= 0
 sum_1!20: y_0!2_2!4 - x_0!2 - x_2!4 >= -1
 idk_1!20!0: y_0!2_2!4 - x_0!2 <= 0
 idk_1!20!2: y_0!2_2!4 - x_2!4 <= 0
 sum_1!21: y_0!3_2!4 - x_0!3 - x_2!4 >= -1
 idk_1!21!0: y_0!3_2!4 - x_0!3 <= 0
 idk_1!21!2: y_0!3_2!4 - x_2!4 <= 0
 sum_1!22: y_0!4_2!4 - x_0!4 - x_2!4 >= -1
 idk_1!22!0: y_0!4_2!4 - x_0!4 <= 0
 idk_1!22!2: y_0!4_2!4 - x_2!4 <= 0
 sum_1!23: y_0!5_2!4 - x_0!5 - x_2!4 >= -1
 idk_1!23!0: y_0!5_2!4 - x_0!5 <= 0
 idk_1!23!2: y_0!5_2!4 - x_2!4 <= 0
 sum_1!24: y_0!6_2!4 - x_0!6 - x_2!4 >= -1
 idk_1!24!0: y_0!6_2!4 - x_0!6 <= 0
 idk_1!24!2: y_0!6_2!4 - x_2!4 <= 0
 sum_1!25: y_0!1_2!5 - x_0!1 - x_2!5 >= -1
 idk_1!25!0: y_0!1_2!5 - x_0!1 <= 0
 idk_1!25!2: y_0!1_2!5 - x_2!5 <= 0
 sum_1!26: y_0!2_2!5 - x_0!2 - x_2!5 >= -1
 idk_1!26!0: y_0!2_2!5 - x_0!2 <= 0
 idk_1!26!2: y_0!2_2!5 - x_2!5 <= 0
 sum_1!27: y_0!3_2!5 - x_0!3 - x_2!5 >= -1
 idk_1!27!0: y_0!3_2!5 - x_0!3 <= 0
 idk_1!27!2: y_0!3_2!5 - x_2!5 <= 0
 sum_1!28: y_0!4_2!5 - x_0!4 - x_2!5 >= -1
 idk_1!28!0: y_0!4_2!5 - x_0!4 <= 0
 idk_1!28!2: y_0!4_2!5 - x_2!5 <= 0
 sum_1!29: y_0!5_2!5 - x_0!5 - x_2!5 >= -1
 idk_1!29!0: y_0!5_2!5 - x_0!5 <= 0
 idk_1!29!2: y_0!5_2!5 - x_2!5 <= 0
 sum_1!30: y_0!6_2!5 - x_0!6 - x_2!5 >= -1
 idk_1!30!0: y_0!6_2!5 - x_0!6 <= 0
 idk_1!30!2: y_0!6_2!5 - x_2!5 <= 0
 sum_1!31: y_0!1_2!6 - x_0!1 - x_2!6 >= -1
 idk_1!31!0: y_0!1_2!6 - x_0!1 <= 0
 idk_1!31!2: y_0!1_2!6 - x_2!6 <= 0
 sum_1!32: y_0!2_2!6 - x_0!2 - x_2!6 >= -1
 idk_1!32!0: y_0!2_2!6 - x_0!2 <= 0
 idk_1!32!2: y_0!2_2!6 - x_2!6 <= 0
 sum_1!33: y_0!3_2!6 - x_0!3 - x_2!6 >= -1
 idk_1!33!0: y_0!3_2!6 - x_0!3 <= 0
 idk_1!33!2: y_0!3_2!6 - x_2!6 <= 0
 sum_1!34: y_0!4_2!6 - x_0!4 - x_2!6 >= -1
 idk_1!34!0: y_0!4_2!6 - x_0!4 <= 0
 idk_1!34!2: y_0!4_2!6 - x_2!6 <= 0
 sum_1!35: y_0!5_2!6 - x_0!5 - x_2!6 >= -1
 idk_1!35!0: y_0!5_2!6 - x_0!5 <= 0
 idk_1!35!2: y_0!5_2!6 - x_2!6 <= 0
 sum_1!36: y_0!6_2!6 - x_0!6 - x_2!6 >= -1
 idk_1!36!0: y_0!6_2!6 - x_0!6 <= 0
 idk_1!36!2: y_0!6_2!6 - x_2!6 <= 0
 epc_2!1: +36.0176034436567 y_0!1_1!1 +89.2738928346032 y_0!2_1!1 -32.78662453934899 y_0!3_1!1 -28.350121690052305 y_0!4_1!1 +71.1105686763143 y_0!5_1!1 -44.439505575427376 y_0!6_1!1 -95.05880599679257 y_0!1_1!2 -43.10717629219067 y_0!2_1!2 +88.8995741545234 y_0!3_1!2 -20.662855657724606 y_0!4_1!2 +71.40870266876746 y_0!5_1!2 +30.636064095167512 y_0!6_1!2 +49.67490253247573 y_0!1_1!3 +15.957373907870334 y_0!2_1!3 +13.883052211115825 y_0!3_1!3 -66.26656492919408 y_0!4_1!3 -89.0267140347961 y_0!5_1!3 +89.00167708746787 y_0!6_1!3 -83.59086193625251 y_0!1_1!4 +49.810154153499155 y_0!2_1!4 +23.954287712788954 y_0!3_1!4 +53.81419158952224 y_0!4_1!4 -37.14675617783709 y_0!5_1!4 +84.35516213056485 y_0!6_1!4 -88.03163955360431 y_0!1_1!5 +97.02586542402358 y_0!2_1!5 +68.74420073408527 y_0!3_1!5 +17.309105553335627 y_0!4_1!5 -50.89170620011512 y_0!5_1!5 +35.021922001481954 y_0!6_1!5 -71.29230442734895 y_0!1_1!6 +89.07846576764373 y_0!2_1!6 -93.26887057289461 y_0!3_1!6 +22.944186778368604 y_0!4_1!6 -14.140331314470671 y_0!5_1!6 -37.08604361487355 y_0!6_1!6 + lambda_2!1 - mu_2 = 0
 epc_2!2: +54.88293231389389 y_0!1_1!1 +53.2016471518111 y_0!2_1!1 -42.154866196031435 y_0!3_1!1 +8.349321661458916 y_0!4_1!1 +93.254068315772 y_0!5_1!1 -91.40452417177514 y_0!6_1!1 -48.72103195979096 y_0!1_1!2 +70.90438143661927 y_0!2_1!2 +42.738004819403216 y_0!3_1!2 +40.0475251079898 y_0!4_1!2 -37.83440777491531 y_0!5_1!2 -67.48606124237034 y_0!6_1!2 -46.138030914018714 y_0!1_1!3 -37.44593303317885 y_0!2_1!3 +94.44475886208372 y_0!3_1!3 -74.8479225076055 y_0!4_1!3 +82.30304040577704 y_0!5_1!3 +5.369508169462762 y_0!6_1!3 -67.86901713292255 y_0!1_1!4 +36.87915795314382 y_0!2_1!4 +44.39863523202354 y_0!3_1!4 +13.557459184432275 y_0!4_1!4 -27.41556471982007 y_0!5_1!4 -54.95342095182429 y_0!6_1!4 -2.9943605087089367 y_0!1_1!5 +77.92945556459338 y_0!2_1!5 +69.2714736056625 y_0!3_1!5 -74.34776203940018 y_0!4_1!5 +86.25775359461824 y_0!5_1!5 -30.975620357053685 y_0!6_1!5 +41.94329110869444 y_0!1_1!6 -79.15256321876623 y_0!2_1!6 +78.71588667451442 y_0!3_1!6 +68.16450390920849 y_0!4_1!6 -9.51859256794745 y_0!5_1!6 -1.6462311596058044 y_0!6_1!6 + lambda_2!2 - mu_2 = 0
 epc_2!3: +26.101822219604955 y_0!1_1!1 +24.756860703780532 y_0!2_1!1 -4.270849408185185 y_0!3_1!1 +7.056340195857771 y_0!4_1!1 +21.250654053739453 y_0!5_1!1 -76.10863132588705 y_0!6_1!1 +6.448517278928165 y_0!1_1!2 +22.29749913826329 y_0!2_1!2 -21.887239162281702 y_0!3_1!2 +21.920202214496953 y_0!4_1!2 -3.887890325909325 y_0!5_1!2 -17.5969413293179 y_0!6_1!2 -87.41849308827614 y_0!1_1!3 -99.91464801809396 y_0!2_1!3 -73.43979712571155 y_0!3_1!3 -55.269196293996714 y_0!4_1!3 +13.618042895110577 y_0!5_1!3 -2.605505090800648 y_0!6_1!3 +77.62326938059434 y_0!1_1!4 +35.03888514485473 y_0!2_1!4 +75.58998401271376 y_0!3_1!4 -86.17217912243834 y_0!4_1!4 +92.63061299914906 y_0!5_1!4 +28.229534929410335 y_0!6_1!4 +12.936048738430046 y_0!1_1!5 +23.59146496935405 y_0!2_1!5 +49.296105217587495 y_0!3_1!5 -18.468667009801337 y_0!4_1!5 -2.7860370811036574 y_0!5_1!5 +5.515888179736919 y_0!6_1!5 -6.207737631046427 y_0!1_1!6 +42.941036595328455 y_0!2_1!6 +44.28441778935769 y_0!3_1!6 +83.83042735882444 y_0!4_1!6 +72.89427818201057 y_0!5_1!6 +78.2538880255245 y_0!6_1!6 + lambda_2!3 - mu_2 = 0
 epc_2!4: +35.82893770754683 y_0!1_1!1 +77.42804068576143 y_0!2_1!1 +64.89594290594277 y_0!3_1!1 +99.2690258689442 y_0!4_1!1 -15.404860454454735 y_0!5_1!1 -20.632956095230767 y_0!6_1!1 -55.43039569379853 y_0!1_1!2 +33.76449916502108 y_0!2_1!2 +46.70784946056082 y_0!3_1!2 -69.26050994935994 y_0!4_1!2 -79.23726240149827 y_0!5_1!2 -45.40584311411329 y_0!6_1!2 -52.91988197050972 y_0!1_1!3 -85.8313217914577 y_0!2_1!3 -42.706022104652355 y_0!3_1!3 +80.7665962458369 y_0!4_1!3 -84.59666881969241 y_0!5_1!3 +72.08097174151092 y_0!6_1!3 -71.36825080676554 y_0!1_1!4 +77.62394609829795 y_0!2_1!4 -69.6090042841096 y_0!3_1!4 +53.530092532076196 y_0!4_1!4 +71.40894005210347 y_0!5_1!4 +16.246397502933462 y_0!6_1!4 +38.89604773663075 y_0!1_1!5 +10.734739075685695 y_0!2_1!5 +71.14746665472626 y_0!3_1!5 +3.965856488154259 y_0!4_1!5 -45.783062713657976 y_0!5_1!5 +2.623196787500575 y_0!6_1!5 -29.36328702214857 y_0!1_1!6 -31.619798640991675 y_0!2_1!6 +44.352883720454685 y_0!3_1!6 +17.561541818707056 y_0!4_1!6 -97.7696228316044 y_0!5_1!6 -33.482735999628105 y_0!6_1!6 + lambda_2!4 - mu_2 = 0
 epc_2!5: -3.835800524938932 y_0!1_1!1 +1.074655870238601 y_0!2_1!1 +30.8963454514398 y_0!3_1!1 +98.80548311209682 y_0!4_1!1 +85.33876560706807 y_0!5_1!1 -33.24770388258497 y_0!6_1!1 +48.174646783615714 y_0!1_1!2 +34.26610777932572 y_0!2_1!2 +94.761120299265 y_0!3_1!2 +79.66507291391318 y_0!4_1!2 +79.26886299056406 y_0!5_1!2 +98.84947777760556 y_0!6_1!2 -94.67415422743122 y_0!1_1!3 -68.50180200844578 y_0!2_1!3 -43.683398847854704 y_0!3_1!3 +43.09586560492721 y_0!4_1!3 +33.432420993119365 y_0!5_1!3 +75.2434936125448 y_0!6_1!3 +70.45502786349059 y_0!1_1!4 -11.690946723890178 y_0!2_1!4 -91.6562144072905 y_0!3_1!4 +54.6730840164613 y_0!4_1!4 +43.61774750266238 y_0!5_1!4 +52.1887470089743 y_0!6_1!4 +70.28643158714686 y_0!1_1!5 +49.951007302902156 y_0!2_1!5 +58.06957116385061 y_0!3_1!5 -24.624377721107507 y_0!4_1!5 -73.3850945992366 y_0!5_1!5 +65.62169158258479 y_0!6_1!5 +47.5061304012014 y_0!1_1!6 -90.3792619826614 y_0!2_1!6 +28.55910513979518 y_0!3_1!6 -89.15282941902257 y_0!4_1!6 +88.11555725049988 y_0!5_1!6 -13.701241678242098 y_0!6_1!6 + lambda_2!5 - mu_2 = 0
 epc_2!6: +25.01796982608802 y_0!1_1!1 +64.14767749867266 y_0!2_1!1 +31.319686442365366 y_0!3_1!1 -39.25771281930957 y_0!4_1!1 -87.44151330264187 y_0!5_1!1 +76.03302467509883 y_0!6_1!1 +91.98272041343003 y_0!1_1!2 -76.61758499917346 y_0!2_1!2 -67.77569672568339 y_0!3_1!2 +42.79508159705162 y_0!4_1!2 -53.30456338528678 y_0!5_1!2 -17.061576698480735 y_0!6_1!2 +63.953434933721354 y_0!1_1!3 +83.3644159583751 y_0!2_1!3 -93.68655848169251 y_0!3_1!3 -40.09265617461395 y_0!4_1!3 -61.64996165647403 y_0!5_1!3 +68.51696446772937 y_0!6_1!3 -94.7517633805099 y_0!1_1!4 +80.36196488004802 y_0!2_1!4 -76.74967039864777 y_0!3_1!4 +87.84944595728149 y_0!4_1!4 -2.9198268018120643 y_0!5_1!4 +30.573572288601497 y_0!6_1!4 -51.03176484932237 y_0!1_1!5 +94.8250505210089 y_0!2_1!5 -38.1172236353946 y_0!3_1!5 -77.76631827774324 y_0!4_1!5 -88.69847450789787 y_0!5_1!5 +43.82370212455268 y_0!6_1!5 -84.7819814021154 y_0!1_1!6 -73.94335349036263 y_0!2_1!6 +35.3245834655975 y_0!3_1!6 +25.514044410584873 y_0!4_1!6 +62.08270835545099 y_0!5_1!6 -41.69695063889633 y_0!6_1!6 + lambda_2!6 - mu_2 = 0
 dc_2: x_2!1 + x_2!2 + x_2!3 + x_2!4 + x_2!5 + x_2!6 = 1
 bc_2!1: lambda_2!1 +299.3627692559371 x_2!1 <= 299.3627692559371
 bc_2!2: lambda_2!2 +299.3627692559371 x_2!2 <= 299.3627692559371
 bc_2!3: lambda_2!3 +299.3627692559371 x_2!3 <= 299.3627692559371
 bc_2!4: lambda_2!4 +299.3627692559371 x_2!4 <= 299.3627692559371
 bc_2!5: lambda_2!5 +299.3627692559371 x_2!5 <= 299.3627692559371
 bc_2!6: lambda_2!6 +299.3627692559371 x_2!6 <= 299.3627692559371
 sum_2!1: y_0!1_1!1 - x_0!1 - x_1!1 >= -1
 idk_2!1!0: y_0!1_1!1 - x_0!1 <= 0
 idk_2!1!1: y_0!1_1!1 - x_1!1 <= 0
 sum_2!2: y_0!2_1!1 - x_0!2 - x_1!1 >= -1
 idk_2!2!0: y_0!2_1!1 - x_0!2 <= 0
 idk_2!2!1: y_0!2_1!1 - x_1!1 <= 0
 sum_2!3: y_0!3_1!1 - x_0!3 - x_1!1 >= -1
 idk_2!3!0: y_0!3_1!1 - x_0!3 <= 0
 idk_2!3!1: y_0!3_1!1 - x_1!1 <= 0
 sum_2!4: y_0!4_1!1 - x_0!4 - x_1!1 >= -1
 idk_2!4!0: y_0!4_1!1 - x_0!4 <= 0
 idk_2!4!1: y_0!4_1!1 - x_1!1 <= 0
 sum_2!5: y_0!5_1!1 - x_0!5 - x_1!1 >= -1
 idk_2!5!0: y_0!5_1!1 - x_0!5 <= 0
 idk_2!5!1: y_0!5_1!1 - x_1!1 <= 0
 sum_2!6: y_0!6_1!1 - x_0!6 - x_1!1 >= -1
 idk_2!6!0: y_0!6_1!1 - x_0!6 <= 0
 idk_2!6!1: y_0!6_1!1 - x_1!1 <= 0
 sum_2!7: y_0!1_1!2 - x_0!1 - x_1!2 >= -1
 idk_2!7!0: y_0!1_1!2 - x_0!1 <= 0
 idk_2!7!1: y_0!1_1!2 - x_1!2 <= 0
 sum_2!8: y_0!2_1!2 - x_0!2 - x_1!2 >= -1
 idk_2!8!0: y_0!2_1!2 - x_0!2 <= 0
 idk_2!8!1: y_0!2_1!2 - x_1!2 <= 0
 sum_2!9: y_0!3_1!2 - x_0!3 - x_1!2 >= -1
 idk_2!9!0: y_0!3_1!2 - x_0!3 <= 0
 idk_2!9!1: y_0!3_1!2 - x_1!2 <= 0
 sum_2!10: y_0!4_1!2 - x_0!4 - x_1!2 >= -1
 idk_2!10!0: y_0!4_1!2 - x_0!4 <= 0
 idk_2!10!1: y_0!4_1!2 - x_1!2 <= 0
 sum_2!11: y_0!5_1!2 - x_0!5 - x_1!2 >= -1
 idk_2!11!0: y_0!5_1!2 - x_0!5 <= 0
 idk_2!11!1: y_0!5_1!2 - x_1!2 <= 0
 sum_2!12: y_0!6_1!2 - x_0!6 - x_1!2 >= -1
 idk_2!12!0: y_0!6_1!2 - x_0!6 <= 0
 idk_2!12!1: y_0!6_1!2 - x_1!2 <= 0
 sum_2!13: y_0!1_1!3 - x_0!1 - x_1!3 >= -1
 idk_2!13!0: y_0!1_1!3 - x_0!1 <= 0
 idk_2!13!1: y_0!1_1!3 - x_1!3 <= 0
 sum_2!14: y_0!2_1!3 - x_0!2 - x_1!3 >= -1
 idk_2!14!0: y_0!2_1!3 - x_0!2 <= 0
 idk_2!14!1: y_0!2_1!3 - x_1!3 <= 0
 sum_2!15: y_0!3_1!3 - x_0!3 - x_1!3 >= -1
 idk_2!15!0: y_0!3_1!3 - x_0!3 <= 0
 idk_2!15!1: y_0!3_1!3 - x_1!3 <= 0
 sum_2!16: y_0!4_1!3 - x_0!4 - x_1!3 >= -1
 idk_2!16!0: y_0!4_1!3 - x_0!4 <= 0
 idk_2!16!1: y_0!4_1!3 - x_1!3 <= 0
 sum_2!17: y_0!5_1!3 - x_0!5 - x_1!3 >= -1
 idk_2!17!0: y_0!5_1!3 - x_0!5 <= 0
 idk_2!17!1: y_0!5_1!3 - x_1!3 <= 0
 sum_2!18: y_0!6_1!3 - x_0!6 - x_1!3 >= -1
 idk_2!18!0: y_0!6_1!3 - x_0!6 <= 0
 idk_2!18!1: y_0!6_1!3 - x_1!3 <= 0
 sum_2!19: y_0!1_1!4 - x_0!1 - x_1!4 >= -1
 idk_2!19!0: y_0!1_1!4 - x_0!1 <= 0
 idk_2!19!1: y_0!1_1!4 - x_1!4 <= 0
 sum_2!20: y_0!2_1!4 - x_0!2 - x_1!4 >= -1
 idk_2!20!0: y_0!2_1!4 - x_0!2 <= 0
 idk_2!20!1: y_0!2_1!4 - x_1!4 <= 0
 sum_2!21: y_0!3_1!4 - x_0!3 - x_1!4 >= -1
 idk_2!21!0: y_0!3_1!4 - x_0!3 <= 0
 idk_2!21!1: y_0!3_1!4 - x_1!4 <= 0
 sum_2!22: y_0!4_1!4 - x_0!4 - x_1!4 >= -1
 idk_2!22!0: y_0!4_1!4 - x_0!4 <= 0
 idk_2!22!1: y_0!4_1!4 - x_1!4 <= 0
 sum_2!23: y_0!5_1!4 - x_0!5 - x_1!4 >= -1
 idk_2!23!0: y_0!5_1!4 - x_0!5 <= 0
 idk_2!23!1: y_0!5_1!4 - x_1!4 <= 0
 sum_2!24: y_0!6_1!4 - x_0!6 - x_1!4 >= -1
 idk_2!24!0: y_0!6_1!4 - x_0!6 <= 0
 idk_2!24!1: y_0!6_1!4 - x_1!4 <= 0
 sum_2!25: y_0!1_1!5 - x_0!1 - x_1!5 >= -1
 idk_2!25!0: y_0!1_1!5 - x_0!1 <= 0
 idk_2!25!1: y_0!1_1!5 - x_1!5 <= 0
 sum_2!26: y_0!2_1!5 - x_0!2 - x_1!5 >= -1
 idk_2!26!0: y_0!2_1!5 - x_0!2 <= 0
 idk_2!26!1: y_0!2_1!5 - x_1!5 <= 0
 sum_2!27: y_0!3_1!5 - x_0!3 - x_1!5 >= -1
 idk_2!27!0: y_0!3_1!5 - x_0!3 <= 0
 idk_2!27!1: y_0!3_1!5 - x_1!5 <= 0
 sum_2!28: y_0!4_1!5 - x_0!4 - x_1!5 >= -1
 idk_2!28!0: y_0!4_1!5 - x_0!4 <= 0
 idk_2!28!1: y_0!4_1!5 - x_1!5 <= 0
 sum_2!29: y_0!5_1!5 - x_0!5 - x_1!5 >= -1
 idk_2!29!0: y_0!5_1!5 - x_0!5 <= 0
 idk_2!29!1: y_0!5_1!5 - x_1!5 <= 0
 sum_2!30: y_0!6_1!5 - x_0!6 - x_1!5 >= -1
 idk_2!30!0: y_0!6_1!5 - x_0!6 <= 0
 idk_2!30!1: y_0!6_1!5 - x_1!5 <= 0
 sum_2!31: y_0!1_1!6 - x_0!1 - x_1!6 >= -1
 idk_2!31!0: y_0!1_1!6 - x_0!1 <= 0
 idk_2!31!1: y_0!1_1!6 - x_1!6 <= 0
 sum_2!32: y_0!2_1!6 - x_0!2 - x_1!6 >= -1
 idk_2!32!0: y_0!2_1!6 - x_0!2 <= 0
 idk_2!32!1: y_0!2_1!6 - x_1!6 <= 0
 sum_2!33: y_0!3_1!6 - x_0!3 - x_1!6 >= -1
 idk_2!33!0: y_0!3_1!6 - x_0!3 <= 0
 idk_2!33!1: y_0!3_1!6 - x_1!6 <= 0
 sum_2!34: y_0!4_1!6 - x_0!4 - x_1!6 >= -1
 idk_2!34!0: y_0!4_1!6 - x_0!4 <= 0
 idk_2!34!1: y_0!4_1!6 - x_1!6 <= 0
 sum_2!35: y_0!5_1!6 - x_0!5 - x_1!6 >= -1
 idk_2!35!0: y_0!5_1!6 - x_0!5 <= 0
 idk_2!35!1: y_0!5_1!6 - x_1!6 <= 0
 sum_2!36: y_0!6_1!6 - x_0!6 - x_1!6 >= -1
 idk_2!36!0: y_0!6_1!6 - x_0!6 <= 0
 idk_2!36!1: y_0!6_1!6 - x_1!6 <= 0
Bounds
 mu_0 free
 mu_1 free
 mu_2 free
Binary
 x_0!1 x_0!2 x_0!3 x_0!4 x_0!5 x_0!6 x_1!1 x_1!2 x_1!3 x_1!4 x_1!5 x_1!6 x_2!1 x_2!2 x_2!3 x_2!4 x_2!5 x_2!6
End
